DIMENSION: 7
EDGE_WEIGHT_TYPE: EXPLICIT
EDGE_WEIGHT_FORMAT: FULL_MATRIX
EDGE_WEIGHT_SECTION:
32767 6 85 88 48 88 75 
6 32767 93 69 27 67 44 
85 93 32767 32767 53 36 28 
88 69 32767 32767 32767 32767 5 
48 27 53 32767 32767 27 7 
88 67 36 32767 27 32767 97 
75 44 28 5 7 97 32767 
EOF